
  22   10
  10   10   10   10   10   10   10   10   10   10

   0   0   0   0   0   0   0   0   0   0   0  16 2 3 4 5 6 7 8 13 14 15 16 17 18 19 20 21 
   1   0   0   0   0   0   0   0  10   0   0   2 12 9 
   7   0   0   0  10   0   0   0   0   0   0   2 11 9 
   5   0   0   0   0   0   0   0   0   0  10   1 10 
   4   0   0   0   0   0  10   0   0   0   0   1 10 
  10   0   0   0   0   0  10   0   0   0   0   1 9 
   2  10   0   0   0   0   0   0   0   0   0   1 9 
   1   0   0   0   0   0  10   0   0   0   0   1 9 
   4   0   0   0   0   0   0   0   0   0  10   1 22
  10   0   0   0   0   0   0  10   0   0   0   1 22
   6   0   0   0   0   0   0  10   0   0   0   1 22
   5   0   0   0   0   0  10   0   0   0   0   1 22
   5  10   0   0   0   0   0   0   0   0   0   1 22
   4   0   0   0   0   0   0  10   0   0   0   1 22
   5  10   0   0   0   0   0   0   0   0   0   1 22
   7   0   0   0  10   0   0   0   0   0   0   1 22
   7   0   0   0   0   0   0   0  10   0   0   1 22
   7   0   0  10   0   0   0   0   0   0   0   1 22
   2   0   0   0  10   0   0   0   0   0   0   1 22
   9   0   0   0   0   0   0  10   0   0   0   1 22
   3   0   0   0   0   0   0   0   0  10   0   1 22
   0   0   0   0   0   0   0   0   0   0   0   0 
